c Random generated cnf formula, satisfiable: false
p cnf 10 50
4 9 7 0
2 -1 -9 0
5 -6 -8 0
-7 -1 -8 0
-10 7 -2 0
-3 1 -8 0
-1 3 -7 0
-3 6 -8 0
7 -10 -5 0
-3 -9 -4 0
-5 -3 -10 0
3 -5 -9 0
7 9 -10 0
-1 9 2 0
-4 -3 5 0
3 -7 4 0
-5 -7 -2 0
9 3 -8 0
7 3 1 0
8 10 -6 0
-4 -5 8 0
3 -5 2 0
8 -10 3 0
8 4 -3 0
-10 7 3 0
10 -9 -7 0
-8 5 10 0
9 6 10 0
-1 2 7 0
5 -9 2 0
-1 -5 -3 0
-8 -4 6 0
-2 -7 3 0
7 4 6 0
1 -10 4 0
-2 3 -4 0
-8 2 -7 0
8 -5 7 0
8 4 -2 0
-6 -2 -8 0
-3 7 -4 0
3 -9 -2 0
9 3 -2 0
-6 -2 -7 0
-9 -2 -6 0
-10 3 -4 0
-6 -9 2 0
9 -3 6 0
-1 -7 3 0
4 8 10 0
